p cnf 161616 96
10444 0
10709 0
10843 0
10907 0
11148 0
11245 0
11302 0
11408 0
11642 0
20348 0
20646 0
20807 0
20944 0
21047 0
21403 0
30243 0
30406 0
30848 0
31008 0
31405 0
31607 0
40105 0
41006 0
41202 0
41304 0
41401 0
41644 0
50207 0
51248 0
51544 0
60344 0
60701 0
61046 0
61106 0
61443 0
61508 0
70203 0
70309 0
70447 0
70648 0
71044 0
71201 0
80742 0
80806 0
81009 0
81105 0
81247 0
81507 0
90204 0
90502 0
90603 0
90706 0
90947 0
91007 0
100545 0
100708 0
101142 0
101309 0
101407 0
101503 0
110242 0
110347 0
110609 0
110748 0
111001 0
111404 0
120246 0
120505 0
121545 0
130103 0
130343 0
130405 0
130548 0
130704 0
131606 0
140145 0
140307 0
140702 0
140903 0
141308 0
141501 0
150308 0
150705 0
150847 0
150902 0
151144 0
151409 0
160146 0
160302 0
160409 0
160507 0
160608 0
160845 0
160906 0
161048 0
161343 0
